knapsack-problem/knapsack.dat
# @file knapsack.dat
# @brief sample problem

param K := 100;

param : ITEMS : w v :=
1 10 20
2 10 20
3 15 30
4 20 40
5 20 40
6 25 49
7 25 49
8 50 100;
end;